NAME : xql662
COMMENT : Tour length 9548
TYPE : TOUR
DIMENSION : 662
TOUR_SECTION
1
86
97
132
147
259
271
354
362
397
406
445
504
652
662
661
660
659
658
657
656
655
654
653
651
627
650
649
648
647
646
645
644
643
642
641
640
639
638
637
636
635
633
632
631
630
629
628
634
626
625
624
623
622
621
620
618
619
617
616
615
614
613
612
611
610
609
608
607
606
605
604
603
600
602
601
588
587
599
598
597
596
595
594
593
592
591
590
589
580
586
585
584
583
582
581
579
578
577
576
575
574
573
572
571
570
569
568
567
566
565
564
563
562
561
560
559
556
558
557
555
554
553
552
551
550
549
548
547
546
545
544
543
542
541
540
537
538
539
536
535
534
533
532
531
530
529
528
527
526
525
524
523
522
521
520
519
518
517
516
515
514
513
512
511
510
509
508
507
506
505
503
502
501
500
499
498
497
496
495
494
493
492
491
490
489
486
488
487
485
484
483
482
480
481
478
479
477
476
475
474
473
472
471
470
464
469
468
466
465
460
463
462
461
467
459
458
457
456
455
454
453
452
451
450
449
448
447
446
444
443
442
441
440
439
438
437
436
435
434
433
432
431
430
429
428
427
423
413
426
425
424
422
421
420
419
418
417
416
415
414
412
411
410
409
408
407
405
404
403
402
401
400
399
398
396
395
394
392
393
388
391
390
389
387
386
385
384
383
382
381
380
379
378
377
376
375
357
374
373
372
371
370
369
368
367
366
365
364
363
361
360
359
358
356
355
353
352
351
350
349
348
341
340
339
347
346
345
344
343
342
338
337
336
335
334
332
321
322
333
331
330
329
328
327
326
325
324
323
320
319
318
317
316
315
314
313
312
311
307
310
309
308
302
306
305
304
303
290
301
300
299
298
297
296
295
294
293
292
288
289
291
266
287
286
285
284
283
282
281
280
279
278
277
276
275
274
273
272
270
269
268
267
265
264
263
262
261
260
258
257
256
255
253
247
254
252
251
250
249
248
246
245
244
238
243
241
239
242
240
237
236
235
234
233
232
231
230
229
228
227
226
225
224
223
218
222
221
220
219
217
207
208
210
211
212
213
215
216
214
209
206
205
204
203
202
201
200
199
198
197
196
195
194
193
192
191
190
189
188
187
186
185
184
183
177
182
181
180
179
178
176
175
174
173
172
171
170
169
168
167
166
165
164
163
162
161
158
160
159
157
156
153
155
154
152
151
150
149
148
146
145
144
143
142
141
131
140
139
138
130
137
136
135
134
133
129
128
127
126
125
124
123
122
121
120
119
118
117
116
115
114
113
112
111
110
109
108
107
106
105
104
103
99
102
101
100
96
95
98
93
94
92
91
90
88
87
89
83
85
84
82
78
79
80
81
77
76
75
74
73
72
71
70
69
68
67
66
65
64
63
62
61
60
59
58
57
56
55
53
54
51
52
46
47
50
49
48
45
40
41
39
44
43
42
38
36
37
35
27
29
30
31
32
34
33
28
26
25
24
23
22
21
20
19
18
17
16
15
14
13
12
11
10
9
8
7
6
5
4
3
2
1
-1
EOF